
Gurobi 9.5.0 (mac64[x86], Python) logging started Fri Dec 17 10:54:49 2021

Set parameter Username
Set parameter LogFile to value "gurobi.log"
Academic license - for non-commercial use only - expires 2022-12-12
